60
1 86
15 56
19 77
16 64
13 8
30 4
11 70
2 16
25 70
28 5
23 80
2 31
30 78
28 73
16 43
30 11
16 79
7 86
19 94
14 63
16 44
13 23
30 19
8 26
30 56
16 47
18 64
23 99
11 49
1 10
23 98
26 22
27 38
12 83
25 8
1 37
29 62
20 15
10 100
5 20
8 22
7 90
20 95
3 30
11 10
10 85
16 63
11 87
29 65
12 84
30 65
9 22
8 30
9 10
9 79
10 35
17 99
3 37
8 16
28 88
